(declare-fun var0 () String)
(assert (RegexIn var0 (RegexConcat (RegexStar (RegexUnion (Str2Reg "666") (Str2Reg "7"))) (RegexConcat (RegexPlus (RegexPlus (Str2Reg "55"))) (RegexConcat (RegexPlus (RegexStar (Str2Reg "44"))) (RegexConcat (RegexStar (RegexPlus (Str2Reg "33"))) (RegexConcat (RegexUnion (RegexStar (Str2Reg "1")) (RegexStar (Str2Reg "222"))) (RegexPlus (RegexStar (Str2Reg "000"))))))))))
(assert (not (RegexIn var0 (RegexConcat (RegexPlus (RegexPlus (Str2Reg "999"))) (RegexConcat (RegexUnion (RegexStar (Str2Reg "777")) (RegexPlus (Str2Reg "888"))) (RegexConcat (RegexUnion (RegexStar (Str2Reg "5")) (RegexPlus (Str2Reg "6"))) (RegexConcat (RegexUnion (RegexStar (Str2Reg "333")) (RegexPlus (Str2Reg "44"))) (RegexConcat (RegexPlus (RegexUnion (Str2Reg "111") (Str2Reg "22"))) (RegexStar (RegexPlus (Str2Reg "00")))))))))))
(check-sat)